c nIsolatedPIs 160
c maxPI 96
p cnf 331 706
c gate 97 -40 -88 0
-40 -97 0
-88 -97 0
40 88 97 0
c gate 98 38 86 0
38 -98 0
86 -98 0
-38 -86 98 0
c gate 99 37 85 0
37 -99 0
85 -99 0
-37 -85 99 0
c gate 100 -98 -99 0
-98 -100 0
-99 -100 0
98 99 100 0
c gate 101 -39 -87 0
-39 -101 0
-87 -101 0
39 87 101 0
c gate 102 -38 -86 0
-38 -102 0
-86 -102 0
38 86 102 0
c gate 103 -101 -102 0
-101 -103 0
-102 -103 0
101 102 103 0
c gate 104 -100 103 0
-100 -104 0
103 -104 0
100 -103 104 0
c gate 105 39 87 0
39 -105 0
87 -105 0
-39 -87 105 0
c gate 106 40 88 0
40 -106 0
88 -106 0
-40 -88 106 0
c gate 107 -105 -106 0
-105 -107 0
-106 -107 0
105 106 107 0
c gate 108 -104 107 0
-104 -108 0
107 -108 0
104 -107 108 0
c gate 109 -97 -108 0
-97 -109 0
-108 -109 0
97 108 109 0
c gate 110 -37 -85 0
-37 -110 0
-85 -110 0
37 85 110 0
c gate 111 -97 -110 0
-97 -111 0
-110 -111 0
97 110 111 0
c gate 112 103 111 0
103 -112 0
111 -112 0
-103 -111 112 0
c gate 113 108 112 0
108 -113 0
112 -113 0
-108 -112 113 0
c gate 114 36 84 0
36 -114 0
84 -114 0
-36 -84 114 0
c gate 115 -36 -84 0
-36 -115 0
-84 -115 0
36 84 115 0
c gate 116 35 83 0
35 -116 0
83 -116 0
-35 -83 116 0
c gate 117 -115 116 0
-115 -117 0
116 -117 0
115 -116 117 0
c gate 118 -114 -117 0
-114 -118 0
-117 -118 0
114 117 118 0
c gate 119 -35 -83 0
-35 -119 0
-83 -119 0
35 83 119 0
c gate 120 -115 -119 0
-115 -120 0
-119 -120 0
115 119 120 0
c gate 121 118 120 0
118 -121 0
120 -121 0
-118 -120 121 0
c gate 122 34 82 0
34 -122 0
82 -122 0
-34 -82 122 0
c gate 123 33 81 0
33 -123 0
81 -123 0
-33 -81 123 0
c gate 124 -122 -123 0
-122 -124 0
-123 -124 0
122 123 124 0
c gate 125 -34 -82 0
-34 -125 0
-82 -125 0
34 82 125 0
c gate 126 -124 -125 0
-124 -126 0
-125 -126 0
124 125 126 0
c gate 127 121 126 0
121 -127 0
126 -127 0
-121 -126 127 0
c gate 128 118 -127 0
118 -128 0
-127 -128 0
-118 127 128 0
c gate 129 113 -128 0
113 -129 0
-128 -129 0
-113 128 129 0
c gate 130 -109 -129 0
-109 -130 0
-129 -130 0
109 129 130 0
c gate 131 -33 -81 0
-33 -131 0
-81 -131 0
33 81 131 0
c gate 132 -125 -131 0
-125 -132 0
-131 -132 0
125 131 132 0
c gate 133 124 132 0
124 -133 0
132 -133 0
-124 -132 133 0
c gate 134 121 133 0
121 -134 0
133 -134 0
-121 -133 134 0
c gate 135 113 134 0
113 -135 0
134 -135 0
-113 -134 135 0
c gate 136 -32 -80 0
-32 -136 0
-80 -136 0
32 80 136 0
c gate 137 32 80 0
32 -137 0
80 -137 0
-32 -80 137 0
c gate 138 31 79 0
31 -138 0
79 -138 0
-31 -79 138 0
c gate 139 -137 -138 0
-137 -139 0
-138 -139 0
137 138 139 0
c gate 140 -31 -79 0
-31 -140 0
-79 -140 0
31 79 140 0
c gate 141 -30 -78 0
-30 -141 0
-78 -141 0
30 78 141 0
c gate 142 -140 -141 0
-140 -142 0
-141 -142 0
140 141 142 0
c gate 143 30 78 0
30 -143 0
78 -143 0
-30 -78 143 0
c gate 144 29 77 0
29 -144 0
77 -144 0
-29 -77 144 0
c gate 145 -143 -144 0
-143 -145 0
-144 -145 0
143 144 145 0
c gate 146 -29 -77 0
-29 -146 0
-77 -146 0
29 77 146 0
c gate 147 28 76 0
28 -147 0
76 -147 0
-28 -76 147 0
c gate 148 -28 -76 0
-28 -148 0
-76 -148 0
28 76 148 0
c gate 149 27 -148 0
27 -149 0
-148 -149 0
-27 148 149 0
c gate 150 75 149 0
75 -150 0
149 -150 0
-75 -149 150 0
c gate 151 -147 -150 0
-147 -151 0
-150 -151 0
147 150 151 0
c gate 152 75 -148 0
75 -152 0
-148 -152 0
-75 148 152 0
c gate 153 -149 -152 0
-149 -153 0
-152 -153 0
149 152 153 0
c gate 154 25 73 0
25 -154 0
73 -154 0
-25 -73 154 0
c gate 155 26 74 0
26 -155 0
74 -155 0
-26 -74 155 0
c gate 156 -154 -155 0
-154 -156 0
-155 -156 0
154 155 156 0
c gate 157 -26 -74 0
-26 -157 0
-74 -157 0
26 74 157 0
c gate 158 -156 -157 0
-156 -158 0
-157 -158 0
156 157 158 0
c gate 159 -153 158 0
-153 -159 0
158 -159 0
153 -158 159 0
c gate 160 151 -159 0
151 -160 0
-159 -160 0
-151 159 160 0
c gate 161 -146 -160 0
-146 -161 0
-160 -161 0
146 160 161 0
c gate 162 145 -161 0
145 -162 0
-161 -162 0
-145 161 162 0
c gate 163 142 -162 0
142 -163 0
-162 -163 0
-142 162 163 0
c gate 164 139 -163 0
139 -164 0
-163 -164 0
-139 163 164 0
c gate 165 -136 -164 0
-136 -165 0
-164 -165 0
136 164 165 0
c gate 166 139 156 0
139 -166 0
156 -166 0
-139 -156 166 0
c gate 167 142 145 0
142 -167 0
145 -167 0
-142 -145 167 0
c gate 168 166 167 0
166 -168 0
167 -168 0
-166 -167 168 0
c gate 169 -146 -157 0
-146 -169 0
-157 -169 0
146 157 169 0
c gate 170 -25 -73 0
-25 -170 0
-73 -170 0
25 73 170 0
c gate 171 -136 -170 0
-136 -171 0
-170 -171 0
136 170 171 0
c gate 172 169 171 0
169 -172 0
171 -172 0
-169 -171 172 0
c gate 173 -153 172 0
-153 -173 0
172 -173 0
153 -172 173 0
c gate 174 168 173 0
168 -174 0
173 -174 0
-168 -173 174 0
c gate 175 151 174 0
151 -175 0
174 -175 0
-151 -174 175 0
c gate 176 2 50 0
2 -176 0
50 -176 0
-2 -50 176 0
c gate 177 1 49 0
1 -177 0
49 -177 0
-1 -49 177 0
c gate 178 -176 -177 0
-176 -178 0
-177 -178 0
176 177 178 0
c gate 179 -3 -51 0
-3 -179 0
-51 -179 0
3 51 179 0
c gate 180 -2 -50 0
-2 -180 0
-50 -180 0
2 50 180 0
c gate 181 -179 -180 0
-179 -181 0
-180 -181 0
179 180 181 0
c gate 182 -178 181 0
-178 -182 0
181 -182 0
178 -181 182 0
c gate 183 4 52 0
4 -183 0
52 -183 0
-4 -52 183 0
c gate 184 3 51 0
3 -184 0
51 -184 0
-3 -51 184 0
c gate 185 -183 -184 0
-183 -185 0
-184 -185 0
183 184 185 0
c gate 186 -182 185 0
-182 -186 0
185 -186 0
182 -185 186 0
c gate 187 -4 -52 0
-4 -187 0
-52 -187 0
4 52 187 0
c gate 188 -5 -53 0
-5 -188 0
-53 -188 0
5 53 188 0
c gate 189 -187 -188 0
-187 -189 0
-188 -189 0
187 188 189 0
c gate 190 -186 189 0
-186 -190 0
189 -190 0
186 -189 190 0
c gate 191 6 54 0
6 -191 0
54 -191 0
-6 -54 191 0
c gate 192 5 53 0
5 -192 0
53 -192 0
-5 -53 192 0
c gate 193 -191 -192 0
-191 -193 0
-192 -193 0
191 192 193 0
c gate 194 -190 193 0
-190 -194 0
193 -194 0
190 -193 194 0
c gate 195 -7 -55 0
-7 -195 0
-55 -195 0
7 55 195 0
c gate 196 -6 -54 0
-6 -196 0
-54 -196 0
6 54 196 0
c gate 197 -195 -196 0
-195 -197 0
-196 -197 0
195 196 197 0
c gate 198 -194 197 0
-194 -198 0
197 -198 0
194 -197 198 0
c gate 199 8 56 0
8 -199 0
56 -199 0
-8 -56 199 0
c gate 200 7 55 0
7 -200 0
55 -200 0
-7 -55 200 0
c gate 201 -199 -200 0
-199 -201 0
-200 -201 0
199 200 201 0
c gate 202 -198 201 0
-198 -202 0
201 -202 0
198 -201 202 0
c gate 203 -9 -57 0
-9 -203 0
-57 -203 0
9 57 203 0
c gate 204 -8 -56 0
-8 -204 0
-56 -204 0
8 56 204 0
c gate 205 -203 -204 0
-203 -205 0
-204 -205 0
203 204 205 0
c gate 206 -202 205 0
-202 -206 0
205 -206 0
202 -205 206 0
c gate 207 10 58 0
10 -207 0
58 -207 0
-10 -58 207 0
c gate 208 9 57 0
9 -208 0
57 -208 0
-9 -57 208 0
c gate 209 -207 -208 0
-207 -209 0
-208 -209 0
207 208 209 0
c gate 210 -206 209 0
-206 -210 0
209 -210 0
206 -209 210 0
c gate 211 -10 -58 0
-10 -211 0
-58 -211 0
10 58 211 0
c gate 212 -12 -60 0
-12 -212 0
-60 -212 0
12 60 212 0
c gate 213 -11 -59 0
-11 -213 0
-59 -213 0
11 59 213 0
c gate 214 -212 -213 0
-212 -214 0
-213 -214 0
212 213 214 0
c gate 215 -211 214 0
-211 -215 0
214 -215 0
211 -214 215 0
c gate 216 -210 215 0
-210 -216 0
215 -216 0
210 -215 216 0
c gate 217 12 60 0
12 -217 0
60 -217 0
-12 -60 217 0
c gate 218 11 59 0
11 -218 0
59 -218 0
-11 -59 218 0
c gate 219 -212 218 0
-212 -219 0
218 -219 0
212 -218 219 0
c gate 220 -217 -219 0
-217 -220 0
-219 -220 0
217 219 220 0
c gate 221 -216 220 0
-216 -221 0
220 -221 0
216 -220 221 0
c gate 222 -14 -62 0
-14 -222 0
-62 -222 0
14 62 222 0
c gate 223 -15 -63 0
-15 -223 0
-63 -223 0
15 63 223 0
c gate 224 -222 -223 0
-222 -224 0
-223 -224 0
222 223 224 0
c gate 225 14 62 0
14 -225 0
62 -225 0
-14 -62 225 0
c gate 226 13 61 0
13 -226 0
61 -226 0
-13 -61 226 0
c gate 227 -225 -226 0
-225 -227 0
-226 -227 0
225 226 227 0
c gate 228 -13 -61 0
-13 -228 0
-61 -228 0
13 61 228 0
c gate 229 227 -228 0
227 -229 0
-228 -229 0
-227 228 229 0
c gate 230 224 229 0
224 -230 0
229 -230 0
-224 -229 230 0
c gate 231 -221 230 0
-221 -231 0
230 -231 0
221 -230 231 0
c gate 232 224 -227 0
224 -232 0
-227 -232 0
-224 227 232 0
c gate 233 15 63 0
15 -233 0
63 -233 0
-15 -63 233 0
c gate 234 16 64 0
16 -234 0
64 -234 0
-16 -64 234 0
c gate 235 -233 -234 0
-233 -235 0
-234 -235 0
233 234 235 0
c gate 236 -232 235 0
-232 -236 0
235 -236 0
232 -235 236 0
c gate 237 -231 236 0
-231 -237 0
236 -237 0
231 -236 237 0
c gate 238 -20 -68 0
-20 -238 0
-68 -238 0
20 68 238 0
c gate 239 19 -238 0
19 -239 0
-238 -239 0
-19 238 239 0
c gate 240 67 -238 0
67 -240 0
-238 -240 0
-67 238 240 0
c gate 241 -239 -240 0
-239 -241 0
-240 -241 0
239 240 241 0
c gate 242 -17 -65 0
-17 -242 0
-65 -242 0
17 65 242 0
c gate 243 -16 -64 0
-16 -243 0
-64 -243 0
16 64 243 0
c gate 244 -21 -69 0
-21 -244 0
-69 -244 0
21 69 244 0
c gate 245 -243 -244 0
-243 -245 0
-244 -245 0
243 244 245 0
c gate 246 -242 245 0
-242 -246 0
245 -246 0
242 -245 246 0
c gate 247 22 70 0
22 -247 0
70 -247 0
-22 -70 247 0
c gate 248 21 69 0
21 -248 0
69 -248 0
-21 -69 248 0
c gate 249 -247 -248 0
-247 -249 0
-248 -249 0
247 248 249 0
c gate 250 -24 -72 0
-24 -250 0
-72 -250 0
24 72 250 0
c gate 251 -18 -66 0
-18 -251 0
-66 -251 0
18 66 251 0
c gate 252 -250 -251 0
-250 -252 0
-251 -252 0
250 251 252 0
c gate 253 249 252 0
249 -253 0
252 -253 0
-249 -252 253 0
c gate 254 246 253 0
246 -254 0
253 -254 0
-246 -253 254 0
c gate 255 -241 254 0
-241 -255 0
254 -255 0
241 -254 255 0
c gate 256 20 68 0
20 -256 0
68 -256 0
-20 -68 256 0
c gate 257 67 239 0
67 -257 0
239 -257 0
-67 -239 257 0
c gate 258 -256 -257 0
-256 -258 0
-257 -258 0
256 257 258 0
c gate 259 17 65 0
17 -259 0
65 -259 0
-17 -65 259 0
c gate 260 18 66 0
18 -260 0
66 -260 0
-18 -66 260 0
c gate 261 -259 -260 0
-259 -261 0
-260 -261 0
259 260 261 0
c gate 262 -23 -71 0
-23 -262 0
-71 -262 0
23 71 262 0
c gate 263 -22 -70 0
-22 -263 0
-70 -263 0
22 70 263 0
c gate 264 -262 -263 0
-262 -264 0
-263 -264 0
262 263 264 0
c gate 265 24 72 0
24 -265 0
72 -265 0
-24 -72 265 0
c gate 266 23 71 0
23 -266 0
71 -266 0
-23 -71 266 0
c gate 267 -265 -266 0
-265 -267 0
-266 -267 0
265 266 267 0
c gate 268 264 267 0
264 -268 0
267 -268 0
-264 -267 268 0
c gate 269 261 268 0
261 -269 0
268 -269 0
-261 -268 269 0
c gate 270 258 269 0
258 -270 0
269 -270 0
-258 -269 270 0
c gate 271 255 270 0
255 -271 0
270 -271 0
-255 -270 271 0
c gate 272 -237 271 0
-237 -272 0
271 -272 0
237 -271 272 0
c gate 273 -251 -261 0
-251 -273 0
-261 -273 0
251 261 273 0
c gate 274 -241 273 0
-241 -274 0
273 -274 0
241 -273 274 0
c gate 275 258 -274 0
258 -275 0
-274 -275 0
-258 274 275 0
c gate 276 -244 -275 0
-244 -276 0
-275 -276 0
244 275 276 0
c gate 277 249 -276 0
249 -277 0
-276 -277 0
-249 276 277 0
c gate 278 264 -277 0
264 -278 0
-277 -278 0
-264 277 278 0
c gate 279 267 -278 0
267 -279 0
-278 -279 0
-267 278 279 0
c gate 280 -250 -279 0
-250 -280 0
-279 -280 0
250 279 280 0
c gate 281 -272 -280 0
-272 -281 0
-280 -281 0
272 280 281 0
c gate 282 175 -281 0
175 -282 0
-281 -282 0
-175 281 282 0
c gate 283 -165 -282 0
-165 -283 0
-282 -283 0
165 282 283 0
c gate 284 135 -283 0
135 -284 0
-283 -284 0
-135 283 284 0
c gate 285 130 -284 0
130 -285 0
-284 -285 0
-130 284 285 0
c gate 286 48 96 0
48 -286 0
96 -286 0
-48 -96 286 0
c gate 287 -48 -96 0
-48 -287 0
-96 -287 0
48 96 287 0
c gate 288 47 95 0
47 -288 0
95 -288 0
-47 -95 288 0
c gate 289 -287 288 0
-287 -289 0
288 -289 0
287 -288 289 0
c gate 290 -286 -289 0
-286 -290 0
-289 -290 0
286 289 290 0
c gate 291 -46 -94 0
-46 -291 0
-94 -291 0
46 94 291 0
c gate 292 -47 -95 0
-47 -292 0
-95 -292 0
47 95 292 0
c gate 293 -287 -292 0
-287 -293 0
-292 -293 0
287 292 293 0
c gate 294 -291 293 0
-291 -294 0
293 -294 0
291 -293 294 0
c gate 295 290 294 0
290 -295 0
294 -295 0
-290 -294 295 0
c gate 296 -45 -93 0
-45 -296 0
-93 -296 0
45 93 296 0
c gate 297 46 94 0
46 -297 0
94 -297 0
-46 -94 297 0
c gate 298 45 93 0
45 -298 0
93 -298 0
-45 -93 298 0
c gate 299 -297 -298 0
-297 -299 0
-298 -299 0
297 298 299 0
c gate 300 -296 299 0
-296 -300 0
299 -300 0
296 -299 300 0
c gate 301 295 300 0
295 -301 0
300 -301 0
-295 -300 301 0
c gate 302 44 92 0
44 -302 0
92 -302 0
-44 -92 302 0
c gate 303 -44 -92 0
-44 -303 0
-92 -303 0
44 92 303 0
c gate 304 43 91 0
43 -304 0
91 -304 0
-43 -91 304 0
c gate 305 -303 304 0
-303 -305 0
304 -305 0
303 -304 305 0
c gate 306 -302 -305 0
-302 -306 0
-305 -306 0
302 305 306 0
c gate 307 -42 -90 0
-42 -307 0
-90 -307 0
42 90 307 0
c gate 308 -43 -91 0
-43 -308 0
-91 -308 0
43 91 308 0
c gate 309 -303 -308 0
-303 -309 0
-308 -309 0
303 308 309 0
c gate 310 -307 309 0
-307 -310 0
309 -310 0
307 -309 310 0
c gate 311 306 310 0
306 -311 0
310 -311 0
-306 -310 311 0
c gate 312 -41 -89 0
-41 -312 0
-89 -312 0
41 89 312 0
c gate 313 42 90 0
42 -313 0
90 -313 0
-42 -90 313 0
c gate 314 41 89 0
41 -314 0
89 -314 0
-41 -89 314 0
c gate 315 -313 -314 0
-313 -315 0
-314 -315 0
313 314 315 0
c gate 316 -312 315 0
-312 -316 0
315 -316 0
312 -315 316 0
c gate 317 311 316 0
311 -317 0
316 -317 0
-311 -316 317 0
c gate 318 301 317 0
301 -318 0
317 -318 0
-301 -317 318 0
c gate 319 -285 318 0
-285 -319 0
318 -319 0
285 -318 319 0
c gate 320 135 165 0
135 -320 0
165 -320 0
-135 -165 320 0
c gate 321 130 -320 0
130 -321 0
-320 -321 0
-130 320 321 0
c gate 322 109 318 0
109 -322 0
318 -322 0
-109 -318 322 0
c gate 323 311 -315 0
311 -323 0
-315 -323 0
-311 315 323 0
c gate 324 306 -323 0
306 -324 0
-323 -324 0
-306 323 324 0
c gate 325 301 -324 0
301 -325 0
-324 -325 0
-301 324 325 0
c gate 326 295 -299 0
295 -326 0
-299 -326 0
-295 299 326 0
c gate 327 290 -326 0
290 -327 0
-326 -327 0
-290 326 327 0
c gate 328 -325 327 0
-325 -328 0
327 -328 0
325 -327 328 0
c gate 329 -322 328 0
-322 -329 0
328 -329 0
322 -328 329 0
c gate 330 -321 329 0
-321 -330 0
329 -330 0
321 -329 330 0
c gate 331 319 330 0
319 -331 0
330 -331 0
-319 -330 331 0
c PO
331 0
